Using license file /home/shashwat/gurobi.lic
Academic license - for non-commercial use only - expires 2021-02-02

Total Samples: 21120
Model size: 5554



Gurobi Optimizer version 9.1.0 build v9.1.0rc0 (linux64)
Thread count: 4 physical cores, 8 logical processors, using up to 8 threads
Optimize a model with 2835 rows, 5180 columns and 10532 nonzeros
Model fingerprint: 0x119d468b
Variable types: 0 continuous, 5180 integer (0 binary)
Coefficient statistics:
  Matrix range     [1e+00, 1e+09]
  Objective range  [2e+02, 5e+05]
  Bounds range     [1e+00, 8e+03]
  RHS range        [3e+01, 8e+03]
Warning: Model contains large matrix coefficients
         Consider reformulating model or setting NumericFocus parameter
         to avoid numerical issues.
Found heuristic solution: objective 5.202320e+07
Presolve removed 172 rows and 0 columns
Presolve time: 0.02s
Presolved: 2663 rows, 5180 columns, 10274 nonzeros
Variable types: 0 continuous, 5180 integer (2461 binary)

Root relaxation: objective 2.697930e+07, 864 iterations, 0.02 seconds

    Nodes    |    Current Node    |     Objective Bounds      |     Work
 Expl Unexpl |  Obj  Depth IntInf | Incumbent    BestBd   Gap | It/Node Time

     0     0 2.6979e+07    0   26 5.2023e+07 2.6979e+07  48.1%     -    0s
H    0     0                    2.863296e+07 2.6979e+07  5.78%     -    0s
H    0     0                    2.846920e+07 2.6979e+07  5.23%     -    0s
H    0     0                    2.846080e+07 2.6979e+07  5.21%     -    0s
     0     0 2.7036e+07    0  100 2.8461e+07 2.7036e+07  5.00%     -    0s
H    0     0                    2.825729e+07 2.7036e+07  4.32%     -    0s
H    0     0                    2.809385e+07 2.7036e+07  3.76%     -    0s
     0     0 2.7052e+07    0  109 2.8094e+07 2.7052e+07  3.71%     -    0s
     0     0 2.7052e+07    0  114 2.8094e+07 2.7052e+07  3.71%     -    0s
     0     0 2.7052e+07    0  118 2.8094e+07 2.7052e+07  3.71%     -    0s
H    0     0                    2.802366e+07 2.7052e+07  3.47%     -    0s
     0     0 2.7126e+07    0  126 2.8024e+07 2.7126e+07  3.20%     -    0s
     0     0 2.7148e+07    0  158 2.8024e+07 2.7148e+07  3.13%     -    0s
H    0     0                    2.800869e+07 2.7148e+07  3.07%     -    0s
     0     0 2.7150e+07    0  166 2.8009e+07 2.7150e+07  3.06%     -    0s
     0     0 2.7151e+07    0  169 2.8009e+07 2.7151e+07  3.06%     -    0s
     0     0 2.7224e+07    0  162 2.8009e+07 2.7224e+07  2.80%     -    0s
H    0     0                    2.799846e+07 2.7224e+07  2.77%     -    0s
     0     0 2.7234e+07    0  147 2.7998e+07 2.7234e+07  2.73%     -    0s
     0     0 2.7235e+07    0  150 2.7998e+07 2.7235e+07  2.73%     -    0s
     0     0 2.7267e+07    0  140 2.7998e+07 2.7267e+07  2.61%     -    0s
     0     0 2.7269e+07    0  145 2.7998e+07 2.7269e+07  2.61%     -    1s
     0     0 2.7270e+07    0  146 2.7998e+07 2.7270e+07  2.60%     -    1s
     0     0 2.7270e+07    0  144 2.7998e+07 2.7270e+07  2.60%     -    1s
     0     0 2.7279e+07    0  152 2.7998e+07 2.7279e+07  2.57%     -    1s
     0     0 2.7282e+07    0  143 2.7998e+07 2.7282e+07  2.56%     -    1s
     0     0 2.7282e+07    0  168 2.7998e+07 2.7282e+07  2.56%     -    1s
     0     0 2.7338e+07    0  137 2.7998e+07 2.7338e+07  2.36%     -    1s
     0     0 2.7341e+07    0  145 2.7998e+07 2.7341e+07  2.35%     -    1s
     0     0 2.7342e+07    0  149 2.7998e+07 2.7342e+07  2.34%     -    1s
     0     0 2.7342e+07    0  149 2.7998e+07 2.7342e+07  2.34%     -    1s
     0     0 2.7346e+07    0  166 2.7998e+07 2.7346e+07  2.33%     -    1s
     0     0 2.7346e+07    0  169 2.7998e+07 2.7346e+07  2.33%     -    1s
     0     0 2.7373e+07    0  130 2.7998e+07 2.7373e+07  2.23%     -    1s
     0     0 2.7373e+07    0  136 2.7998e+07 2.7373e+07  2.23%     -    1s
     0     0 2.7373e+07    0  149 2.7998e+07 2.7373e+07  2.23%     -    1s
     0     0 2.7374e+07    0  176 2.7998e+07 2.7374e+07  2.23%     -    1s
     0     0 2.7374e+07    0  175 2.7998e+07 2.7374e+07  2.23%     -    1s
H    0     0                    2.797674e+07 2.7374e+07  2.15%     -    2s
     0     2 2.7374e+07    0  175 2.7977e+07 2.7374e+07  2.15%     -    2s
H  114   124                    2.797036e+07 2.7389e+07  2.08%  16.5    2s
H  284   292                    2.792226e+07 2.7389e+07  1.91%  12.4    3s
H  423   400                    2.791580e+07 2.7389e+07  1.89%  10.4    3s
H  567   535                    2.791248e+07 2.7389e+07  1.88%   9.8    3s
H  993   953                    2.791048e+07 2.7389e+07  1.87%   8.1    4s
  1231  1111 2.7627e+07  121  198 2.7910e+07 2.7389e+07  1.87%   7.3    5s
  1258  1129 2.7871e+07   43  196 2.7910e+07 2.7571e+07  1.22%   7.1   10s
H 1274  1082                    2.788619e+07 2.7572e+07  1.13%   8.9   12s
H 1275  1029                    2.788606e+07 2.7573e+07  1.12%   8.9   13s
H 1277   978                    2.784592e+07 2.7575e+07  0.97%   8.9   13s
H 1278   930                    2.784428e+07 2.7575e+07  0.97%   8.9   14s
H 1282   886                    2.783177e+07 2.7575e+07  0.92%   8.9   14s
  1284   887 2.7693e+07  213  187 2.7832e+07 2.7576e+07  0.92%   8.9   15s
H 1291   848                    2.782907e+07 2.7577e+07  0.91%  10.0   16s
  1309   860 2.7671e+07  164  226 2.7829e+07 2.7579e+07  0.90%   9.9   20s
H 1350   840                    2.782893e+07 2.7582e+07  0.89%  12.2   22s
H 1436   841                    2.782694e+07 2.7587e+07  0.86%  13.8   23s
  2154  1140 2.7642e+07   80  119 2.7827e+07 2.7595e+07  0.83%  16.1   25s
  4812  2586 2.7669e+07   83   82 2.7827e+07 2.7613e+07  0.77%  16.3   30s
  8511  5342 2.7747e+07   87   64 2.7827e+07 2.7632e+07  0.70%  16.0   35s
 12135  8084 2.7812e+07  151   30 2.7827e+07 2.7640e+07  0.67%  15.8   40s
 16292 10794     cutoff   46      2.7827e+07 2.7647e+07  0.65%  15.9   45s
 20978 13676 2.7813e+07  119   66 2.7827e+07 2.7652e+07  0.63%  15.8   50s
 25610 16589 2.7778e+07   58  128 2.7827e+07 2.7656e+07  0.61%  15.7   55s
 29986 18615 2.7749e+07   63  175 2.7827e+07 2.7659e+07  0.60%  15.8   68s
 29999 18624 2.7719e+07   75  262 2.7827e+07 2.7659e+07  0.60%  15.8   70s
 30022 18639 2.7798e+07   71  229 2.7827e+07 2.7659e+07  0.60%  15.8   75s
 30032 18647 2.7725e+07   57  173 2.7827e+07 2.7659e+07  0.60%  15.8   80s
 30052 18660 2.7737e+07   78  231 2.7827e+07 2.7659e+07  0.60%  15.8   85s
H30058 17730                    2.782694e+07 2.7659e+07  0.60%  15.8   88s
 30061 17732 2.7701e+07   67  227 2.7827e+07 2.7659e+07  0.60%  15.8   92s
 30067 17740 2.7659e+07   65  200 2.7827e+07 2.7659e+07  0.60%  15.9   95s
 30420 17822 2.7659e+07   82  192 2.7827e+07 2.7659e+07  0.60%  16.0  100s
 32329 18265 2.7667e+07   81  203 2.7827e+07 2.7659e+07  0.60%  16.3  105s
 34707 18982 2.7743e+07   83  160 2.7827e+07 2.7710e+07  0.42%  16.8  110s
 36924 19437 2.7822e+07  137  109 2.7827e+07 2.7719e+07  0.39%  17.2  115s
 39625 20180 2.7780e+07  112  163 2.7827e+07 2.7727e+07  0.36%  17.5  120s
 42606 20719 2.7816e+07  108  131 2.7827e+07 2.7733e+07  0.34%  17.9  125s
 45324 21167 2.7775e+07   82  109 2.7827e+07 2.7738e+07  0.32%  18.1  131s
 47316 21508     cutoff   91      2.7827e+07 2.7740e+07  0.31%  18.4  135s
 49843 22014 2.7787e+07   92   67 2.7827e+07 2.7743e+07  0.30%  18.7  140s
 52666 22368 2.7762e+07   78  101 2.7827e+07 2.7746e+07  0.29%  18.9  145s
 54714 22681 2.7771e+07   99  131 2.7827e+07 2.7748e+07  0.28%  19.1  150s
 57361 23129 2.7784e+07   97  143 2.7827e+07 2.7750e+07  0.28%  19.3  155s
 60521 23585 2.7790e+07  117  124 2.7827e+07 2.7752e+07  0.27%  19.5  161s
 63740 24046 2.7781e+07   80   33 2.7827e+07 2.7754e+07  0.26%  19.6  166s
 65662 24414 2.7756e+07  104  144 2.7827e+07 2.7755e+07  0.26%  19.7  170s
 67635 24880 2.7773e+07   89  137 2.7827e+07 2.7756e+07  0.25%  19.7  177s
 70449 25135 2.7773e+07   89  116 2.7827e+07 2.7758e+07  0.25%  19.8  181s
 73149 25418 2.7793e+07   89  136 2.7827e+07 2.7759e+07  0.24%  19.8  185s
 75557 25623 2.7766e+07  112  129 2.7827e+07 2.7760e+07  0.24%  19.9  190s
 79738 26082 2.7780e+07  107   55 2.7827e+07 2.7762e+07  0.23%  20.0  196s
 82494 26346 2.7816e+07  107  169 2.7827e+07 2.7763e+07  0.23%  20.0  200s
 86080 27165 2.7821e+07   95   70 2.7827e+07 2.7764e+07  0.23%  20.0  206s
 89755 28590 2.7801e+07   95   87 2.7827e+07 2.7765e+07  0.22%  20.0  211s
 92363 29501     cutoff  110      2.7827e+07 2.7766e+07  0.22%  20.0  215s
 95971 30757     cutoff  107      2.7827e+07 2.7767e+07  0.22%  20.0  221s
 99134 32036 2.7811e+07  107   73 2.7827e+07 2.7768e+07  0.21%  20.1  225s
 103121 33432 2.7824e+07  126   82 2.7827e+07 2.7769e+07  0.21%  20.0  230s
 106955 34880 2.7802e+07  111  118 2.7827e+07 2.7770e+07  0.20%  20.1  235s
 110397 36015 2.7795e+07  103   72 2.7827e+07 2.7771e+07  0.20%  20.1  241s
 112921 36867 2.7808e+07   95   99 2.7827e+07 2.7772e+07  0.20%  20.1  245s
 116337 38095 2.7775e+07   93  144 2.7827e+07 2.7772e+07  0.20%  20.1  250s
 119848 39209 2.7782e+07   88   62 2.7827e+07 2.7773e+07  0.19%  20.1  256s
 123671 40529 2.7799e+07  116   83 2.7827e+07 2.7774e+07  0.19%  20.1  261s
 126812 41353 2.7787e+07  108  103 2.7827e+07 2.7775e+07  0.19%  20.1  265s
 129217 42402     cutoff  119      2.7827e+07 2.7775e+07  0.19%  20.1  270s
 133012 43733 2.7799e+07  101  154 2.7827e+07 2.7776e+07  0.18%  20.0  275s
 136754 44894 2.7819e+07  107   77 2.7827e+07 2.7776e+07  0.18%  20.0  280s
 140426 45901 2.7792e+07   93   19 2.7827e+07 2.7777e+07  0.18%  20.0  285s
 142526 46228 2.7803e+07   97  151 2.7827e+07 2.7777e+07  0.18%  20.0  291s
 145337 47180     cutoff  131      2.7827e+07 2.7778e+07  0.18%  20.0  296s
 149161 47985 2.7814e+07  125  149 2.7827e+07 2.7779e+07  0.17%  20.0  301s
 151218 48538 2.7826e+07   96   31 2.7827e+07 2.7779e+07  0.17%  20.0  306s
 154225 49329 2.7780e+07   91   75 2.7827e+07 2.7780e+07  0.17%  20.0  311s
 156846 49994     cutoff   97      2.7827e+07 2.7780e+07  0.17%  19.9  316s
 160603 50938 2.7804e+07  100   81 2.7827e+07 2.7781e+07  0.17%  19.9  321s
 163044 51489 2.7796e+07  106   68 2.7827e+07 2.7781e+07  0.16%  19.9  327s
 165752 52052     cutoff   78      2.7827e+07 2.7781e+07  0.16%  19.9  330s
 169211 53055     cutoff  127      2.7827e+07 2.7782e+07  0.16%  19.9  337s
 171614 53737 2.7807e+07  139   24 2.7827e+07 2.7782e+07  0.16%  19.8  341s
 173945 54114 2.7797e+07  123   43 2.7827e+07 2.7783e+07  0.16%  19.8  345s
 177392 54826     cutoff   95      2.7827e+07 2.7783e+07  0.16%  19.8  350s
 179802 55432 2.7797e+07   93  147 2.7827e+07 2.7783e+07  0.16%  19.8  355s
 183660 56191     cutoff  103      2.7827e+07 2.7784e+07  0.15%  19.8  360s
 186918 56755 2.7803e+07  108   48 2.7827e+07 2.7785e+07  0.15%  19.8  366s
 190430 57455 2.7799e+07   89  101 2.7827e+07 2.7785e+07  0.15%  19.8  371s
 192852 57904 2.7792e+07  135  105 2.7827e+07 2.7785e+07  0.15%  19.8  376s
 195261 58421 2.7808e+07  106  127 2.7827e+07 2.7786e+07  0.15%  19.7  382s
 197751 58769 2.7807e+07   95  104 2.7827e+07 2.7786e+07  0.15%  19.7  386s
 200325 59241 2.7804e+07   89   79 2.7827e+07 2.7786e+07  0.15%  19.7  390s
 204089 59939     cutoff   92      2.7827e+07 2.7787e+07  0.14%  19.7  396s
 206466 60314 2.7806e+07  102   21 2.7827e+07 2.7787e+07  0.14%  19.7  401s
 208565 60626 2.7804e+07  106  121 2.7827e+07 2.7787e+07  0.14%  19.7  406s
 211087 61012 2.7809e+07  111   98 2.7827e+07 2.7788e+07  0.14%  19.7  410s
 214635 61582 2.7826e+07   80   86 2.7827e+07 2.7788e+07  0.14%  19.6  417s
 217297 62030 2.7806e+07  108  106 2.7827e+07 2.7788e+07  0.14%  19.6  421s
 219741 62407 2.7824e+07   89   27 2.7827e+07 2.7789e+07  0.14%  19.6  425s
 221964 62727 2.7821e+07   84   78 2.7827e+07 2.7789e+07  0.14%  19.6  430s
 224276 63096 2.7810e+07  115   21 2.7827e+07 2.7789e+07  0.14%  19.6  436s
 226869 63459 2.7819e+07   94   75 2.7827e+07 2.7790e+07  0.13%  19.6  441s
 229239 63762 2.7814e+07   86  131 2.7827e+07 2.7790e+07  0.13%  19.5  445s
 232932 64157     cutoff   94      2.7827e+07 2.7790e+07  0.13%  19.5  450s
 236317 64439     cutoff   92      2.7827e+07 2.7791e+07  0.13%  19.5  456s
 238770 64680 2.7826e+07  131   51 2.7827e+07 2.7791e+07  0.13%  19.5  462s
 241318 64941 2.7818e+07  111   92 2.7827e+07 2.7791e+07  0.13%  19.5  465s
 244977 65251 2.7806e+07  105   74 2.7827e+07 2.7792e+07  0.13%  19.4  470s
 248696 65627 2.7824e+07  109   67 2.7827e+07 2.7792e+07  0.12%  19.4  479s
 249286 65691     cutoff   92      2.7827e+07 2.7792e+07  0.12%  19.4  481s
 251798 65929     cutoff  111      2.7827e+07 2.7793e+07  0.12%  19.4  485s
 255586 66173 2.7827e+07   84   25 2.7827e+07 2.7793e+07  0.12%  19.4  490s
 257828 66354     cutoff  161      2.7827e+07 2.7793e+07  0.12%  19.4  495s
 260536 66573     cutoff  104      2.7827e+07 2.7794e+07  0.12%  19.3  500s
 264297 66744 2.7797e+07   97   48 2.7827e+07 2.7794e+07  0.12%  19.3  506s
 266633 66788 2.7819e+07  101  104 2.7827e+07 2.7794e+07  0.12%  19.3  510s
 270625 66910 2.7799e+07  122   92 2.7827e+07 2.7795e+07  0.12%  19.3  515s
 274181 67126 2.7820e+07  106   17 2.7827e+07 2.7795e+07  0.11%  19.3  520s
 277506 67168     cutoff  106      2.7827e+07 2.7795e+07  0.11%  19.2  526s
 279991 67179     cutoff  146      2.7827e+07 2.7796e+07  0.11%  19.2  530s
 283531 66944 2.7813e+07  111  145 2.7827e+07 2.7796e+07  0.11%  19.2  535s
 287298 66911     cutoff  104      2.7827e+07 2.7796e+07  0.11%  19.2  540s
 291364 66909     cutoff  122      2.7827e+07 2.7797e+07  0.11%  19.1  545s
 295111 66946 2.7804e+07  112  107 2.7827e+07 2.7797e+07  0.11%  19.1  550s
 297493 66978     cutoff  126      2.7827e+07 2.7797e+07  0.11%  19.1  555s
 301216 66884     cutoff  107      2.7827e+07 2.7798e+07  0.10%  19.1  562s
 302447 66835 2.7810e+07   94   38 2.7827e+07 2.7798e+07  0.10%  19.1  565s
 306329 66815 2.7816e+07  109  110 2.7827e+07 2.7798e+07  0.10%  19.0  571s
 310098 66591 2.7823e+07  125   69 2.7827e+07 2.7799e+07  0.10%  19.0  576s
 313941 66426     cutoff  111      2.7827e+07 2.7799e+07  0.10%  19.0  581s
 316397 66312 2.7813e+07   95   56 2.7827e+07 2.7799e+07  0.10%  19.0  585s
H318003 66238                    2.782694e+07 2.7799e+07  0.10%  19.0  586s
 320133 66127 2.7825e+07  104  109 2.7827e+07 2.7800e+07  0.10%  19.0  590s
 323800 65724 2.7809e+07   90   47 2.7827e+07 2.7800e+07  0.10%  18.9  596s
 327509 65587 2.7814e+07  127   31 2.7827e+07 2.7800e+07  0.10%  18.9  601s
 330118 65370 2.7813e+07  106  129 2.7827e+07 2.7801e+07  0.09%  18.9  606s
 332717 65001 2.7827e+07  109   84 2.7827e+07 2.7801e+07  0.09%  18.9  611s
H333385 65001                    2.782694e+07 2.7801e+07  0.09%  18.9  611s
 334774 64778 2.7819e+07   92   98 2.7827e+07 2.7801e+07  0.09%  18.9  615s
 337375 64499     cutoff  143      2.7827e+07 2.7801e+07  0.09%  18.9  620s
 340040 64205 2.7808e+07   92  119 2.7827e+07 2.7802e+07  0.09%  18.8  625s
 342422 63901     cutoff   88      2.7827e+07 2.7802e+07  0.09%  18.8  631s
 345007 63353     cutoff  137      2.7827e+07 2.7802e+07  0.09%  18.8  638s
 346321 63130     cutoff  113      2.7827e+07 2.7802e+07  0.09%  18.8  641s
 348934 62852     cutoff  105      2.7827e+07 2.7803e+07  0.09%  18.8  645s
 352988 62318 2.7810e+07  127   81 2.7827e+07 2.7803e+07  0.09%  18.8  650s
 356695 61672     cutoff   92      2.7827e+07 2.7803e+07  0.09%  18.7  656s
 359332 61200 2.7823e+07  110  101 2.7827e+07 2.7803e+07  0.08%  18.7  660s
 363647 60448 2.7817e+07  124   92 2.7827e+07 2.7804e+07  0.08%  18.7  666s
 366537 59899 2.7816e+07  138   70 2.7827e+07 2.7804e+07  0.08%  18.7  671s
 369494 59393 2.7819e+07  120   61 2.7827e+07 2.7804e+07  0.08%  18.7  675s
 373805 58550     cutoff  126      2.7827e+07 2.7805e+07  0.08%  18.6  681s
 376617 57864     cutoff  112      2.7827e+07 2.7805e+07  0.08%  18.6  686s
 379477 57267 2.7825e+07  116  110 2.7827e+07 2.7806e+07  0.08%  18.6  690s
 384013 56465     cutoff   84      2.7827e+07 2.7806e+07  0.08%  18.6  695s
 388398 55568 2.7826e+07  135  158 2.7827e+07 2.7806e+07  0.07%  18.5  701s
 391285 54820     cutoff  122      2.7827e+07 2.7807e+07  0.07%  18.5  705s
 395810 53639 2.7826e+07  129  112 2.7827e+07 2.7807e+07  0.07%  18.5  710s
 400393 52526     cutoff  104      2.7827e+07 2.7808e+07  0.07%  18.4  716s
 403349 51772 2.7823e+07  127  107 2.7827e+07 2.7808e+07  0.07%  18.4  721s
 406272 50899     cutoff  120      2.7827e+07 2.7808e+07  0.07%  18.4  725s
 409230 49924     cutoff   91      2.7827e+07 2.7809e+07  0.07%  18.4  730s
 413956 48592 2.7822e+07   88   76 2.7827e+07 2.7809e+07  0.06%  18.3  736s
 417151 47553 2.7818e+07  106   20 2.7827e+07 2.7810e+07  0.06%  18.3  741s
 420391 46563     cutoff  110      2.7827e+07 2.7810e+07  0.06%  18.3  746s
 423629 45267     cutoff  108      2.7827e+07 2.7810e+07  0.06%  18.3  751s
 427189 43870     cutoff  102      2.7827e+07 2.7811e+07  0.06%  18.2  755s
 432852 41552     cutoff   97      2.7827e+07 2.7811e+07  0.06%  18.2  762s
 434698 40796 2.7824e+07  136    5 2.7827e+07 2.7812e+07  0.06%  18.2  765s
 440867 38321 2.7824e+07  127   17 2.7827e+07 2.7812e+07  0.05%  18.1  771s
 444700 36538     cutoff  128      2.7827e+07 2.7813e+07  0.05%  18.1  776s
 449003 34649     cutoff  106      2.7827e+07 2.7813e+07  0.05%  18.0  781s
 450976 33667     cutoff   97      2.7827e+07 2.7814e+07  0.05%  18.0  787s
 452970 32425 2.7819e+07  123   98 2.7827e+07 2.7814e+07  0.05%  18.0  791s
 458157 29680 2.7826e+07  131  105 2.7827e+07 2.7815e+07  0.04%  17.9  796s
 463668 26720     cutoff  142      2.7827e+07 2.7816e+07  0.04%  17.9  803s
 466562 25033     cutoff  140      2.7827e+07 2.7816e+07  0.04%  17.9  807s
 469441 23096 2.7821e+07   94   79 2.7827e+07 2.7816e+07  0.04%  17.8  810s
 476003 18670     cutoff  131      2.7827e+07 2.7818e+07  0.03%  17.8  818s
 479818 16134     cutoff  131      2.7827e+07 2.7818e+07  0.03%  17.7  822s
 483944 13240 2.7823e+07  113   16 2.7827e+07 2.7819e+07  0.03%  17.6  828s
 488006  9865     cutoff  102      2.7827e+07 2.7820e+07  0.02%  17.6  832s
 492664  6145     cutoff  138      2.7827e+07 2.7821e+07  0.02%  17.5  836s
 497612  2137     cutoff  102      2.7827e+07 2.7823e+07  0.01%  17.4  840s

Cutting planes:
  Gomory: 43
  Implied bound: 2
  MIR: 209
  Flow cover: 345
  Relax-and-lift: 1

Explored 502363 nodes (8715397 simplex iterations) in 840.81 seconds
Thread count was 8 (of 8 available processors)

Solution count 10: 2.78269e+07 2.78269e+07 2.78269e+07 ... 2.78861e+07

Optimal solution found (tolerance 1.00e-04)
Best objective 2.782694163661e+07, best bound 2.782517825338e+07, gap 0.0063%


Optimal value of objective function: 27826941.6366055
Best cost: 27826941.6366055

Lab: 0 	Type: 0 	Capacity = 800 	Tested = 800.0 	Samples overloaded = 0.0
Lab: 1 	Type: 0 	Capacity = 600 	Tested = 600.0 	Samples overloaded = 0.0
Lab: 2 	Type: 0 	Capacity = 200 	Tested = 200.0 	Samples overloaded = 0.0
Lab: 3 	Type: 0 	Capacity = 300 	Tested = 300.0 	Samples overloaded = 0.0
Lab: 4 	Type: 0 	Capacity = 500 	Tested = 500.0 	Samples overloaded = 0.0
Lab: 5 	Type: 0 	Capacity = 200 	Tested = 280.0 	Samples overloaded = 80.0
Lab: 6 	Type: 0 	Capacity = 600 	Tested = 600.0 	Samples overloaded = 0.0
Lab: 7 	Type: 0 	Capacity = 700 	Tested = 700.0 	Samples overloaded = 0.0
Lab: 8 	Type: 0 	Capacity = 400 	Tested = 400.0 	Samples overloaded = 0.0
Lab: 9 	Type: 0 	Capacity = 200 	Tested = 200.0 	Samples overloaded = 0.0
Lab: 10 	Type: 0 	Capacity = 300 	Tested = 300.0 	Samples overloaded = 0.0
Lab: 11 	Type: 1 	Capacity = 500 	Tested = 500.0 	Samples overloaded = 0.0
Lab: 12 	Type: 0 	Capacity = 500 	Tested = 500.0 	Samples overloaded = 0.0
Lab: 13 	Type: 0 	Capacity = 400 	Tested = 400.0 	Samples overloaded = 0.0
Lab: 14 	Type: 0 	Capacity = 800 	Tested = 800.0 	Samples overloaded = 0.0
Lab: 15 	Type: 0 	Capacity = 300 	Tested = 300.0 	Samples overloaded = 0.0
Lab: 16 	Type: 0 	Capacity = 200 	Tested = 200.0 	Samples overloaded = 0.0
Lab: 17 	Type: 0 	Capacity = 150 	Tested = 144.0 	Samples overloaded = 0.0
Lab: 18 	Type: 0 	Capacity = 200 	Tested = 200.0 	Samples overloaded = 0.0
Lab: 19 	Type: 0 	Capacity = 150 	Tested = 182.0 	Samples overloaded = 32.0
Lab: 20 	Type: 1 	Capacity = 500 	Tested = 500.0 	Samples overloaded = 0.0
Lab: 21 	Type: 1 	Capacity = 100 	Tested = 100.0 	Samples overloaded = 0.0
Lab: 22 	Type: 1 	Capacity = 500 	Tested = 500.0 	Samples overloaded = 0.0
Lab: 23 	Type: 1 	Capacity = 500 	Tested = 500.0 	Samples overloaded = 0.0
Lab: 24 	Type: 1 	Capacity = 300 	Tested = 300.0 	Samples overloaded = 0.0
Lab: 25 	Type: 1 	Capacity = 200 	Tested = 200.0 	Samples overloaded = 0.0
Lab: 26 	Type: 1 	Capacity = 90 	Tested = 90.0 	Samples overloaded = 0.0
Lab: 27 	Type: 1 	Capacity = 200 	Tested = 200.0 	Samples overloaded = 0.0
Lab: 28 	Type: 1 	Capacity = 500 	Tested = 500.0 	Samples overloaded = 0.0
Lab: 29 	Type: 1 	Capacity = 150 	Tested = 150.0 	Samples overloaded = 0.0
Lab: 30 	Type: 1 	Capacity = 500 	Tested = 500.0 	Samples overloaded = 0.0
Lab: 31 	Type: 1 	Capacity = 70 	Tested = 70.0 	Samples overloaded = 0.0
Lab: 32 	Type: 1 	Capacity = 700 	Tested = 700.0 	Samples overloaded = 0.0
Lab: 33 	Type: 1 	Capacity = 150 	Tested = 150.0 	Samples overloaded = 0.0
Lab: 34 	Type: 1 	Capacity = 200 	Tested = 200.0 	Samples overloaded = 0.0
Lab: 35 	Type: 1 	Capacity = 72 	Tested = 72.0 	Samples overloaded = 0.0
Lab: 36 	Type: 1 	Capacity = 200 	Tested = 200.0 	Samples overloaded = 0.0
Lab: 37 	Type: 1 	Capacity = 200 	Tested = 200.0 	Samples overloaded = 0.0
Lab: 38 	Type: 1 	Capacity = 140 	Tested = 140.0 	Samples overloaded = 0.0
Lab: 39 	Type: 1 	Capacity = 70 	Tested = 70.0 	Samples overloaded = 0.0
Lab: 40 	Type: 0 	Capacity = 200 	Tested = 200.0 	Samples overloaded = 0.0
Lab: 41 	Type: 0 	Capacity = 200 	Tested = 200.0 	Samples overloaded = 0.0
Lab: 42 	Type: 0 	Capacity = 36 	Tested = 40.0 	Samples overloaded = 4.0
Lab: 43 	Type: 0 	Capacity = 36 	Tested = 36.0 	Samples overloaded = 0.0
Lab: 44 	Type: 0 	Capacity = 200 	Tested = 200.0 	Samples overloaded = 0.0
Lab: 45 	Type: 0 	Capacity = 200 	Tested = 300.0 	Samples overloaded = 100.0
Lab: 46 	Type: 1 	Capacity = 200 	Tested = 200.0 	Samples overloaded = 0.0
Lab: 47 	Type: 1 	Capacity = 36 	Tested = 36.0 	Samples overloaded = 0.0
Lab: 48 	Type: 1 	Capacity = 36 	Tested = 36.0 	Samples overloaded = 0.0
Lab: 49 	Type: 1 	Capacity = 36 	Tested = 36.0 	Samples overloaded = 0.0
Lab: 50 	Type: 0 	Capacity = 36 	Tested = 44.0 	Samples overloaded = 8.0
Lab: 51 	Type: 0 	Capacity = 200 	Tested = 200.0 	Samples overloaded = 0.0
Lab: 52 	Type: 0 	Capacity = 300 	Tested = 360.0 	Samples overloaded = 60.0
Lab: 53 	Type: 0 	Capacity = 36 	Tested = 100.0 	Samples overloaded = 64.0
Lab: 54 	Type: 0 	Capacity = 36 	Tested = 40.0 	Samples overloaded = 4.0
Lab: 55 	Type: 0 	Capacity = 200 	Tested = 200.0 	Samples overloaded = 0.0
Lab: 56 	Type: 0 	Capacity = 36 	Tested = 48.0 	Samples overloaded = 12.0
Lab: 57 	Type: 0 	Capacity = 200 	Tested = 200.0 	Samples overloaded = 0.0
Lab: 58 	Type: 0 	Capacity = 36 	Tested = 36.0 	Samples overloaded = 0.0
Lab: 59 	Type: 0 	Capacity = 36 	Tested = 36.0 	Samples overloaded = 0.0
Lab: 60 	Type: 0 	Capacity = 36 	Tested = 36.0 	Samples overloaded = 0.0
Lab: 61 	Type: 0 	Capacity = 36 	Tested = 40.0 	Samples overloaded = 4.0
Lab: 62 	Type: 0 	Capacity = 200 	Tested = 200.0 	Samples overloaded = 0.0
Lab: 63 	Type: 0 	Capacity = 200 	Tested = 240.0 	Samples overloaded = 40.0
Lab: 64 	Type: 0 	Capacity = 600 	Tested = 600.0 	Samples overloaded = 0.0
Lab: 65 	Type: 0 	Capacity = 36 	Tested = 36.0 	Samples overloaded = 0.0
Lab: 66 	Type: 1 	Capacity = 300 	Tested = 300.0 	Samples overloaded = 0.0
Lab: 67 	Type: 0 	Capacity = 150 	Tested = 150.0 	Samples overloaded = 0.0
Lab: 68 	Type: 0 	Capacity = 200 	Tested = 240.0 	Samples overloaded = 40.0
Lab: 69 	Type: 1 	Capacity = 150 	Tested = 150.0 	Samples overloaded = 0.0
Lab: 70 	Type: 1 	Capacity = 150 	Tested = 120.0 	Samples overloaded = 0.0
Lab: 71 	Type: 1 	Capacity = 36 	Tested = 36.0 	Samples overloaded = 0.0
Lab: 72 	Type: 1 	Capacity = 36 	Tested = 36.0 	Samples overloaded = 0.0
Lab: 73 	Type: 0 	Capacity = 36 	Tested = 36.0 	Samples overloaded = 0.0
Lab: 74 	Type: 1 	Capacity = 36 	Tested = 36.0 	Samples overloaded = 0.0
Lab: 75 	Type: 1 	Capacity = 36 	Tested = 36.0 	Samples overloaded = 0.0
Lab: 76 	Type: 1 	Capacity = 500 	Tested = 500.0 	Samples overloaded = 0.0
Lab: 77 	Type: 0 	Capacity = 300 	Tested = 302.0 	Samples overloaded = 2.0
Lab: 78 	Type: 1 	Capacity = 200 	Tested = 200.0 	Samples overloaded = 0.0
Lab: 79 	Type: 0 	Capacity = 200 	Tested = 200.0 	Samples overloaded = 0.0
Lab: 80 	Type: 1 	Capacity = 30 	Tested = 30.0 	Samples overloaded = 0.0
Lab: 81 	Type: 1 	Capacity = 250 	Tested = 250.0 	Samples overloaded = 0.0
Lab: 82 	Type: 1 	Capacity = 500 	Tested = 500.0 	Samples overloaded = 0.0
Lab: 83 	Type: 1 	Capacity = 200 	Tested = 200.0 	Samples overloaded = 0.0
Lab: 84 	Type: 1 	Capacity = 500 	Tested = 500.0 	Samples overloaded = 0.0
Lab: 85 	Type: 1 	Capacity = 150 	Tested = 150.0 	Samples overloaded = 0.0

District headquater 0 	 distributed 36.0 	samples out of 420
District headquater 1 	 distributed 480.0 	samples out of 480
District headquater 2 	 distributed 68.0 	samples out of 600
District headquater 3 	 distributed 0 	samples out of 720
District headquater 4 	 distributed 8220.0 	samples out of 8400
District headquater 5 	 distributed 600.0 	samples out of 720
District headquater 6 	 distributed 180.0 	samples out of 180
District headquater 7 	 distributed 244.0 	samples out of 420
District headquater 8 	 distributed 100.0 	samples out of 240
District headquater 9 	 distributed 36.0 	samples out of 420
District headquater 10 	 distributed 960.0 	samples out of 960
District headquater 11 	 distributed 600.0 	samples out of 600
District headquater 12 	 distributed 354.0 	samples out of 540
District headquater 13 	 distributed 182.0 	samples out of 300
District headquater 14 	 distributed 360.0 	samples out of 360
District headquater 15 	 distributed 180.0 	samples out of 180
District headquater 16 	 distributed 600.0 	samples out of 600
District headquater 17 	 distributed 240.0 	samples out of 240
District headquater 18 	 distributed 360.0 	samples out of 360
District headquater 19 	 distributed 360.0 	samples out of 360
District headquater 20 	 distributed 240.0 	samples out of 240
District headquater 21 	 distributed 320.0 	samples out of 480
District headquater 22 	 distributed 240.0 	samples out of 240
District headquater 23 	 distributed 240.0 	samples out of 240
District headquater 24 	 distributed 480.0 	samples out of 480
District headquater 25 	 distributed 200.0 	samples out of 600
District headquater 26 	 distributed 828.0 	samples out of 840
District headquater 27 	 distributed 300.0 	samples out of 420
District headquater 28 	 distributed 40.0 	samples out of 240
District headquater 29 	 distributed 240.0 	samples out of 240



Disrict 0 	 has sent 384.0 	 samples to external lab 12 	(type:  0 district:  12 )	 with distance = 104.85057260256768
Disrict 2 	 has sent 532.0 	 samples to external lab 1 	(type:  0 district:  4 )	 with distance = 251.25851464682128
Disrict 3 	 has sent 720.0 	 samples to external lab 14 	(type:  0 district:  4 )	 with distance = 45.43453619197644
Disrict 4 	 has sent 180.0 	 samples to external lab 46 	(type:  1 district:  21 )	 with distance = 7.903291461056959
Disrict 5 	 has sent 120.0 	 samples to external lab 6 	(type:  0 district:  16 )	 with distance = 96.40915901155631
Disrict 7 	 has sent 176.0 	 samples to external lab 66 	(type:  1 district:  18 )	 with distance = 55.36012677255046
Disrict 8 	 has sent 140.0 	 samples to external lab 4 	(type:  0 district:  14 )	 with distance = 49.193129648266336
Disrict 9 	 has sent 332.0 	 samples to external lab 8 	(type:  0 district:  2 )	 with distance = 115.73356454323626
Disrict 9 	 has sent 52.0 	 samples to external lab 37 	(type:  1 district:  11 )	 with distance = 58.4459948899207
Disrict 12 	 has sent 186.0 	 samples to external lab 41 	(type:  0 district:  1 )	 with distance = 70.23519673474539
Disrict 13 	 has sent 98.0 	 samples to external lab 10 	(type:  0 district:  12 )	 with distance = 54.8855855568682
Disrict 13 	 has sent 20.0 	 samples to external lab 79 	(type:  0 district:  15 )	 with distance = 75.87075188350562
Disrict 21 	 has sent 160.0 	 samples to external lab 16 	(type:  0 district:  20 )	 with distance = 36.65910251553047
Disrict 25 	 has sent 400.0 	 samples to external lab 30 	(type:  1 district:  4 )	 with distance = 56.092627779781694
Disrict 26 	 has sent 12.0 	 samples to external lab 85 	(type:  1 district:  10 )	 with distance = 48.40984857311188
Disrict 27 	 has sent 120.0 	 samples to external lab 57 	(type:  0 district:  26 )	 with distance = 125.40295294553519
Disrict 28 	 has sent 200.0 	 samples to external lab 44 	(type:  0 district:  0 )	 with distance = 73.5966808484872



At centroid 0 	 incoming = 0.0 	 outgoing = 0.0 	 capacity= 800 	in district 4
At centroid 1 	 incoming = 532.0 	 outgoing = 532.0 	 capacity= 600 	in district 4
At centroid 2 	 incoming = 0.0 	 outgoing = 0.0 	 capacity= 200 	in district 4
At centroid 3 	 incoming = 0.0 	 outgoing = 0.0 	 capacity= 300 	in district 21
At centroid 4 	 incoming = 140.0 	 outgoing = 140.0 	 capacity= 500 	in district 14
At centroid 5 	 incoming = 0.0 	 outgoing = 0.0 	 capacity= 200 	in district 24
At centroid 6 	 incoming = 120.0 	 outgoing = 120.0 	 capacity= 600 	in district 16
At centroid 7 	 incoming = 0.0 	 outgoing = 0.0 	 capacity= 700 	in district 4
At centroid 8 	 incoming = 332.0 	 outgoing = 332.0 	 capacity= 400 	in district 2
At centroid 9 	 incoming = 0.0 	 outgoing = 0.0 	 capacity= 200 	in district 10
At centroid 10 	 incoming = 98.0 	 outgoing = 98.0 	 capacity= 300 	in district 12
At centroid 11 	 incoming = 0.0 	 outgoing = 0.0 	 capacity= 500 	in district 4
At centroid 12 	 incoming = 384.0 	 outgoing = 384.0 	 capacity= 500 	in district 12
At centroid 13 	 incoming = 0.0 	 outgoing = 0.0 	 capacity= 400 	in district 1
At centroid 14 	 incoming = 720.0 	 outgoing = 720.0 	 capacity= 800 	in district 4
At centroid 15 	 incoming = 0.0 	 outgoing = 0.0 	 capacity= 300 	in district 4
At centroid 16 	 incoming = 160.0 	 outgoing = 160.0 	 capacity= 200 	in district 20
At centroid 17 	 incoming = 0.0 	 outgoing = 0.0 	 capacity= 150 	in district 6
At centroid 18 	 incoming = 0.0 	 outgoing = 0.0 	 capacity= 200 	in district 24
At centroid 19 	 incoming = 0.0 	 outgoing = 0.0 	 capacity= 150 	in district 13
At centroid 20 	 incoming = 0.0 	 outgoing = 0.0 	 capacity= 500 	in district 4
At centroid 21 	 incoming = 0.0 	 outgoing = 0.0 	 capacity= 100 	in district 4
At centroid 22 	 incoming = 0.0 	 outgoing = 0.0 	 capacity= 500 	in district 4
At centroid 23 	 incoming = 0.0 	 outgoing = 0.0 	 capacity= 500 	in district 4
At centroid 24 	 incoming = 0.0 	 outgoing = 0.0 	 capacity= 300 	in district 4
At centroid 25 	 incoming = 0.0 	 outgoing = 0.0 	 capacity= 200 	in district 4
At centroid 26 	 incoming = 0.0 	 outgoing = 0.0 	 capacity= 90 	in district 4
At centroid 27 	 incoming = 0.0 	 outgoing = 0.0 	 capacity= 200 	in district 10
At centroid 28 	 incoming = 0.0 	 outgoing = 0.0 	 capacity= 500 	in district 4
At centroid 29 	 incoming = 0.0 	 outgoing = 0.0 	 capacity= 150 	in district 11
At centroid 30 	 incoming = 400.0 	 outgoing = 400.0 	 capacity= 500 	in district 4
At centroid 31 	 incoming = 0.0 	 outgoing = 0.0 	 capacity= 70 	in district 4
At centroid 32 	 incoming = 0.0 	 outgoing = 0.0 	 capacity= 700 	in district 26
At centroid 33 	 incoming = 0.0 	 outgoing = 0.0 	 capacity= 150 	in district 10
At centroid 34 	 incoming = 0.0 	 outgoing = 0.0 	 capacity= 200 	in district 4
At centroid 35 	 incoming = 0.0 	 outgoing = 0.0 	 capacity= 72 	in district 10
At centroid 36 	 incoming = 0.0 	 outgoing = 0.0 	 capacity= 200 	in district 10
At centroid 37 	 incoming = 52.0 	 outgoing = 52.0 	 capacity= 200 	in district 11
At centroid 38 	 incoming = 0.0 	 outgoing = 0.0 	 capacity= 140 	in district 4
At centroid 39 	 incoming = 0.0 	 outgoing = 0.0 	 capacity= 70 	in district 4
At centroid 40 	 incoming = 0.0 	 outgoing = 0.0 	 capacity= 200 	in district 25
At centroid 41 	 incoming = 186.0 	 outgoing = 186.0 	 capacity= 200 	in district 1
At centroid 42 	 incoming = 0.0 	 outgoing = 0.0 	 capacity= 36 	in district 28
At centroid 43 	 incoming = 0.0 	 outgoing = 0.0 	 capacity= 36 	in district 0
At centroid 44 	 incoming = 200.0 	 outgoing = 200.0 	 capacity= 200 	in district 0
At centroid 45 	 incoming = 0.0 	 outgoing = 0.0 	 capacity= 200 	in district 27
At centroid 46 	 incoming = 180.0 	 outgoing = 180.0 	 capacity= 200 	in district 21
At centroid 47 	 incoming = 0.0 	 outgoing = 0.0 	 capacity= 36 	in district 1
At centroid 48 	 incoming = 0.0 	 outgoing = 0.0 	 capacity= 36 	in district 4
At centroid 49 	 incoming = 0.0 	 outgoing = 0.0 	 capacity= 36 	in district 4
At centroid 50 	 incoming = 0.0 	 outgoing = 0.0 	 capacity= 36 	in district 7
At centroid 51 	 incoming = 0.0 	 outgoing = 0.0 	 capacity= 200 	in district 7
At centroid 52 	 incoming = 0.0 	 outgoing = 0.0 	 capacity= 300 	in district 19
At centroid 53 	 incoming = 0.0 	 outgoing = 0.0 	 capacity= 36 	in district 8
At centroid 54 	 incoming = 0.0 	 outgoing = 0.0 	 capacity= 36 	in district 29
At centroid 55 	 incoming = 0.0 	 outgoing = 0.0 	 capacity= 200 	in district 29
At centroid 56 	 incoming = 0.0 	 outgoing = 0.0 	 capacity= 36 	in district 26
At centroid 57 	 incoming = 120.0 	 outgoing = 120.0 	 capacity= 200 	in district 26
At centroid 58 	 incoming = 0.0 	 outgoing = 0.0 	 capacity= 36 	in district 9
At centroid 59 	 incoming = 0.0 	 outgoing = 0.0 	 capacity= 36 	in district 4
At centroid 60 	 incoming = 0.0 	 outgoing = 0.0 	 capacity= 36 	in district 6
At centroid 61 	 incoming = 0.0 	 outgoing = 0.0 	 capacity= 36 	in district 23
At centroid 62 	 incoming = 0.0 	 outgoing = 0.0 	 capacity= 200 	in district 23
At centroid 63 	 incoming = 0.0 	 outgoing = 0.0 	 capacity= 200 	in district 22
At centroid 64 	 incoming = 0.0 	 outgoing = 0.0 	 capacity= 600 	in district 5
At centroid 65 	 incoming = 0.0 	 outgoing = 0.0 	 capacity= 36 	in district 18
At centroid 66 	 incoming = 176.0 	 outgoing = 176.0 	 capacity= 300 	in district 18
At centroid 67 	 incoming = 0.0 	 outgoing = 0.0 	 capacity= 150 	in district 4
At centroid 68 	 incoming = 0.0 	 outgoing = 0.0 	 capacity= 200 	in district 17
At centroid 69 	 incoming = 0.0 	 outgoing = 0.0 	 capacity= 150 	in district 4
At centroid 70 	 incoming = 0.0 	 outgoing = 0.0 	 capacity= 150 	in district 16
At centroid 71 	 incoming = 0.0 	 outgoing = 0.0 	 capacity= 36 	in district 4
At centroid 72 	 incoming = 0.0 	 outgoing = 0.0 	 capacity= 36 	in district 4
At centroid 73 	 incoming = 0.0 	 outgoing = 0.0 	 capacity= 36 	in district 4
At centroid 74 	 incoming = 0.0 	 outgoing = 0.0 	 capacity= 36 	in district 4
At centroid 75 	 incoming = 0.0 	 outgoing = 0.0 	 capacity= 36 	in district 12
At centroid 76 	 incoming = 0.0 	 outgoing = 0.0 	 capacity= 500 	in district 4
At centroid 77 	 incoming = 0.0 	 outgoing = 0.0 	 capacity= 300 	in district 11
At centroid 78 	 incoming = 0.0 	 outgoing = 0.0 	 capacity= 200 	in district 18
At centroid 79 	 incoming = 20.0 	 outgoing = 20.0 	 capacity= 200 	in district 15
At centroid 80 	 incoming = 0.0 	 outgoing = 0.0 	 capacity= 30 	in district 1
At centroid 81 	 incoming = 0.0 	 outgoing = 0.0 	 capacity= 250 	in district 4
At centroid 82 	 incoming = 0.0 	 outgoing = 0.0 	 capacity= 500 	in district 4
At centroid 83 	 incoming = 0.0 	 outgoing = 0.0 	 capacity= 200 	in district 20
At centroid 84 	 incoming = 0.0 	 outgoing = 0.0 	 capacity= 500 	in district 4
At centroid 85 	 incoming = 12.0 	 outgoing = 12.0 	 capacity= 150 	in district 10

Total Government Capacity = 11482 
Total private labs' capacity = 9224
